(set-info :smt-lib-version 2.6)
(set-logic QF_NIA)
(set-info :source |
Generated by: Cristina Borralleras, Daniel Larraz, Albert Oliveras, Enric Rodriguez-Carbonell, Albert Rubio
Generated on: 2017-04-27
Generator: VeryMax
Application: Termination proving
Target solver: barcelogic
|)
(set-info :license "https://creativecommons.org/licenses/by/4.0/")
(set-info :category "industrial")
(set-info :status unsat)
(declare-fun Nl1__const_1000^01 () Int)
(declare-fun Nl1__const_110^01 () Int)
(declare-fun Nl1__const_2000^01 () Int)
(declare-fun Nl1x^01 () Int)
(declare-fun Nl1y^01 () Int)
(declare-fun lam0n0 () Int)
(declare-fun lam0n1 () Int)
(declare-fun lam0n2 () Int)
(declare-fun lam0n3 () Int)
(declare-fun lam0n4 () Int)
(declare-fun lam0n5 () Int)
(declare-fun lam0n7 () Int)
(declare-fun Nl1CT1 () Int)
(declare-fun lam0n6 () Int)
(declare-fun lam1n0 () Int)
(declare-fun lam1n1 () Int)
(declare-fun lam1n2 () Int)
(declare-fun lam1n3 () Int)
(declare-fun lam1n4 () Int)
(declare-fun lam1n5 () Int)
(declare-fun lam1n7 () Int)
(declare-fun lam1n6 () Int)
(declare-fun lam2n0 () Int)
(declare-fun lam2n1 () Int)
(declare-fun lam2n2 () Int)
(declare-fun lam2n3 () Int)
(declare-fun lam2n4 () Int)
(declare-fun __const_1000^0 () Int)
(declare-fun __const_110^0 () Int)
(declare-fun x^0 () Int)
(declare-fun __const_2000^0 () Int)
(declare-fun y^0 () Int)
(declare-fun lam6n0 () Int)
(declare-fun lam6n1 () Int)
(declare-fun lam6n2 () Int)
(declare-fun lam6n3 () Int)
(declare-fun lam6n4 () Int)
(declare-fun lam6n5 () Int)
(declare-fun lam6n7 () Int)
(declare-fun RFN1_CT () Int)
(declare-fun RFN1_x^0 () Int)
(declare-fun lam6n6 () Int)
(declare-fun RFN1___const_1000^0 () Int)
(declare-fun RFN1___const_110^0 () Int)
(declare-fun RFN1___const_2000^0 () Int)
(declare-fun RFN1_y^0 () Int)
(declare-fun lam4n0 () Int)
(declare-fun lam4n1 () Int)
(declare-fun lam4n2 () Int)
(declare-fun lam4n3 () Int)
(declare-fun lam4n4 () Int)
(declare-fun lam4n5 () Int)
(declare-fun lam4n7 () Int)
(declare-fun lam4n6 () Int)
(declare-fun lam5n0 () Int)
(declare-fun lam5n1 () Int)
(declare-fun lam5n2 () Int)
(declare-fun lam5n3 () Int)
(declare-fun lam5n4 () Int)
(declare-fun lam5n5 () Int)
(declare-fun lam5n7 () Int)
(declare-fun lam5n6 () Int)
(declare-fun lam3n0 () Int)
(declare-fun lam3n1 () Int)
(declare-fun lam3n2 () Int)
(declare-fun lam3n3 () Int)
(declare-fun lam3n4 () Int)
(declare-fun lam3n5 () Int)
(declare-fun lam3n7 () Int)
(declare-fun lam3n6 () Int)
(assert ( and ( <= ( - 1 ) Nl1__const_1000^01 ) ( <= Nl1__const_1000^01 1 ) ( <= ( - 1 ) Nl1__const_110^01 ) ( <= Nl1__const_110^01 1 ) ( <= ( - 1 ) Nl1__const_2000^01 ) ( <= Nl1__const_2000^01 1 ) ( <= ( - 1 ) Nl1x^01 ) ( <= Nl1x^01 1 ) ( <= ( - 1 ) Nl1y^01 ) ( <= Nl1y^01 1 ) ))
(assert ( or ( and ( >= lam0n0 0 ) ( >= lam0n1 0 ) ( >= lam0n2 0 ) ( >= lam0n3 0 ) ( >= lam0n4 0 ) ( >= lam0n5 0 ) ( >= lam0n7 0 ) ( > ( + ( * 1 lam0n0 ) ( * 1 lam0n1 ) ( * 1 lam0n2 ) ( * 1 lam0n3 ) ( * 2 lam0n5 ) ( * Nl1CT1 lam0n7 ) ( - 1 ) ) 0 ) ( = ( + ( * ( - 1 ) lam0n0 ) ( * ( - 1 ) lam0n1 ) ( * ( - 1 ) lam0n4 ) ( * ( - 1 ) lam0n5 ) ( * 1 lam0n6 ) ( * Nl1__const_1000^01 lam0n7 ) ) 0 ) ( = ( + ( * 1 lam0n0 ) ( * 1 lam0n2 ) ( * 1 lam0n5 ) ( * Nl1__const_110^01 lam0n7 ) ) 0 ) ( = ( + ( * ( - 1 ) lam0n1 ) ( * ( - 1 ) lam0n3 ) ( * ( - 1 ) lam0n5 ) ( * Nl1__const_2000^01 lam0n7 ) ) 0 ) ( = ( + ( * ( - 1 ) lam0n0 ) ( * ( - 1 ) lam0n5 ) ( * 1 lam0n6 ) ( * Nl1x^01 lam0n7 ) ) 0 ) ( = ( + ( * 1 lam0n1 ) ( * 1 lam0n3 ) ( * 1 lam0n5 ) ( * Nl1y^01 lam0n7 ) ) 0 ) ( = ( + ( * ( - 1 ) lam0n2 ) ( * ( - 1 ) lam0n6 ) ) 0 ) ) ( and ( >= lam1n0 0 ) ( >= lam1n1 0 ) ( >= lam1n2 0 ) ( >= lam1n3 0 ) ( >= lam1n4 0 ) ( >= lam1n5 0 ) ( >= lam1n7 0 ) ( > ( + ( * 1 lam1n0 ) ( * 1 lam1n1 ) ( * 1 lam1n2 ) ( * 1 lam1n3 ) ( * 2 lam1n5 ) ( * Nl1CT1 lam1n7 ) ( - 1 ( + Nl1CT1 ( * Nl1x^01 0 ) ) ) ) 0 ) ( = ( + ( * ( - 1 ) lam1n0 ) ( * ( - 1 ) lam1n1 ) ( * ( - 1 ) lam1n4 ) ( * ( - 1 ) lam1n5 ) ( * 1 lam1n6 ) ( * Nl1__const_1000^01 lam1n7 ) ( - ( + 0 Nl1__const_1000^01 ) ) ) 0 ) ( = ( + ( * 1 lam1n0 ) ( * 1 lam1n2 ) ( * 1 lam1n5 ) ( * Nl1__const_110^01 lam1n7 ) ( - ( + 0 Nl1__const_110^01 ) ) ) 0 ) ( = ( + ( * ( - 1 ) lam1n1 ) ( * ( - 1 ) lam1n3 ) ( * ( - 1 ) lam1n5 ) ( * Nl1__const_2000^01 lam1n7 ) ( - ( + 0 Nl1__const_2000^01 ) ) ) 0 ) ( = ( + ( * ( - 1 ) lam1n0 ) ( * ( - 1 ) lam1n5 ) ( * 1 lam1n6 ) ( * Nl1x^01 lam1n7 ) ) 0 ) ( = ( + ( * 1 lam1n1 ) ( * 1 lam1n3 ) ( * 1 lam1n5 ) ( * Nl1y^01 lam1n7 ) ( - ( + 0 Nl1y^01 ) ) ) 0 ) ( = ( + ( * ( - 1 ) lam1n2 ) ( * ( - 1 ) lam1n6 ) ( - ( + 0 ( * Nl1x^01 1 ) ) ) ) 0 ) ) ))
(assert ( and ( not ( <= ( + __const_1000^0 ( * ( - 1 ) __const_110^0 ) x^0 ) 0 ) ) ( not ( <= ( + __const_1000^0 __const_2000^0 ( * ( - 1 ) y^0 ) ) 0 ) ) ( not ( <= ( + __const_2000^0 ( * ( - 1 ) y^0 ) ) 0 ) ) ( not ( <= ( + 1 __const_1000^0 ) 0 ) ) ( not ( <= ( + ( - 1 ) __const_1000^0 ( * ( - 1 ) __const_110^0 ) __const_2000^0 x^0 ( * ( - 1 ) y^0 ) ) 0 ) ) ( <= ( + Nl1CT1 ( * ( + 0 Nl1__const_1000^01 ) __const_1000^0 ) ( * ( + 0 Nl1__const_110^01 ) __const_110^0 ) ( * ( + 0 Nl1__const_2000^01 ) __const_2000^0 ) ( * ( + 0 Nl1x^01 ) x^0 ) ( * ( + 0 Nl1y^01 ) y^0 ) ) 0 ) ))
(assert ( or ( and ( and ( >= lam6n0 0 ) ( >= lam6n1 0 ) ( >= lam6n2 0 ) ( >= lam6n3 0 ) ( >= lam6n4 0 ) ( >= lam6n5 0 ) ( >= lam6n7 0 ) ( > ( + ( * 1 lam6n0 ) ( * 1 lam6n1 ) ( * 1 lam6n2 ) ( * 1 lam6n3 ) ( * 2 lam6n5 ) ( * Nl1CT1 lam6n7 ) ( - 1 ( - ( + RFN1_CT ( * RFN1_x^0 0 ) ) RFN1_CT ) ) ) 0 ) ( = ( + ( * ( - 1 ) lam6n0 ) ( * ( - 1 ) lam6n1 ) ( * ( - 1 ) lam6n4 ) ( * ( - 1 ) lam6n5 ) ( * 1 lam6n6 ) ( * Nl1__const_1000^01 lam6n7 ) ( - ( - ( + 0 RFN1___const_1000^0 ) RFN1___const_1000^0 ) ) ) 0 ) ( = ( + ( * 1 lam6n0 ) ( * 1 lam6n2 ) ( * 1 lam6n5 ) ( * Nl1__const_110^01 lam6n7 ) ( - ( - ( + 0 RFN1___const_110^0 ) RFN1___const_110^0 ) ) ) 0 ) ( = ( + ( * ( - 1 ) lam6n1 ) ( * ( - 1 ) lam6n3 ) ( * ( - 1 ) lam6n5 ) ( * Nl1__const_2000^01 lam6n7 ) ( - ( - ( + 0 RFN1___const_2000^0 ) RFN1___const_2000^0 ) ) ) 0 ) ( = ( + ( * ( - 1 ) lam6n0 ) ( * ( - 1 ) lam6n5 ) ( * 1 lam6n6 ) ( * Nl1x^01 lam6n7 ) ( - ( - RFN1_x^0 ) ) ) 0 ) ( = ( + ( * 1 lam6n1 ) ( * 1 lam6n3 ) ( * 1 lam6n5 ) ( * Nl1y^01 lam6n7 ) ( - ( - ( + 0 RFN1_y^0 ) RFN1_y^0 ) ) ) 0 ) ( = ( + ( * ( - 1 ) lam6n2 ) ( * ( - 1 ) lam6n6 ) ( - ( + 0 ( * RFN1_x^0 1 ) ) ) ) 0 ) ) ( and ( and ( >= lam4n0 0 ) ( >= lam4n1 0 ) ( >= lam4n2 0 ) ( >= lam4n3 0 ) ( >= lam4n4 0 ) ( >= lam4n5 0 ) ( >= lam4n7 0 ) ( > ( + ( * 1 lam4n0 ) ( * 1 lam4n1 ) ( * 1 lam4n2 ) ( * 1 lam4n3 ) ( * 2 lam4n5 ) ( * Nl1CT1 lam4n7 ) ( - 1 ( - RFN1_CT ) ) ) 0 ) ( = ( + ( * ( - 1 ) lam4n0 ) ( * ( - 1 ) lam4n1 ) ( * ( - 1 ) lam4n4 ) ( * ( - 1 ) lam4n5 ) ( * 1 lam4n6 ) ( * Nl1__const_1000^01 lam4n7 ) ( - ( - RFN1___const_1000^0 ) ) ) 0 ) ( = ( + ( * 1 lam4n0 ) ( * 1 lam4n2 ) ( * 1 lam4n5 ) ( * Nl1__const_110^01 lam4n7 ) ( - ( - RFN1___const_110^0 ) ) ) 0 ) ( = ( + ( * ( - 1 ) lam4n1 ) ( * ( - 1 ) lam4n3 ) ( * ( - 1 ) lam4n5 ) ( * Nl1__const_2000^01 lam4n7 ) ( - ( - RFN1___const_2000^0 ) ) ) 0 ) ( = ( + ( * ( - 1 ) lam4n0 ) ( * ( - 1 ) lam4n5 ) ( * 1 lam4n6 ) ( * Nl1x^01 lam4n7 ) ( - ( - RFN1_x^0 ) ) ) 0 ) ( = ( + ( * 1 lam4n1 ) ( * 1 lam4n3 ) ( * 1 lam4n5 ) ( * Nl1y^01 lam4n7 ) ( - ( - RFN1_y^0 ) ) ) 0 ) ( = ( + ( * ( - 1 ) lam4n2 ) ( * ( - 1 ) lam4n6 ) ) 0 ) ) ( and ( >= lam5n0 0 ) ( >= lam5n1 0 ) ( >= lam5n2 0 ) ( >= lam5n3 0 ) ( >= lam5n4 0 ) ( >= lam5n5 0 ) ( >= lam5n7 0 ) ( > ( + ( * 1 lam5n0 ) ( * 1 lam5n1 ) ( * 1 lam5n2 ) ( * 1 lam5n3 ) ( * 2 lam5n5 ) ( * Nl1CT1 lam5n7 ) ( - 1 ( + ( - ( + RFN1_CT ( * RFN1_x^0 0 ) ) RFN1_CT ) 1 ) ) ) 0 ) ( = ( + ( * ( - 1 ) lam5n0 ) ( * ( - 1 ) lam5n1 ) ( * ( - 1 ) lam5n4 ) ( * ( - 1 ) lam5n5 ) ( * 1 lam5n6 ) ( * Nl1__const_1000^01 lam5n7 ) ( - ( - ( + 0 RFN1___const_1000^0 ) RFN1___const_1000^0 ) ) ) 0 ) ( = ( + ( * 1 lam5n0 ) ( * 1 lam5n2 ) ( * 1 lam5n5 ) ( * Nl1__const_110^01 lam5n7 ) ( - ( - ( + 0 RFN1___const_110^0 ) RFN1___const_110^0 ) ) ) 0 ) ( = ( + ( * ( - 1 ) lam5n1 ) ( * ( - 1 ) lam5n3 ) ( * ( - 1 ) lam5n5 ) ( * Nl1__const_2000^01 lam5n7 ) ( - ( - ( + 0 RFN1___const_2000^0 ) RFN1___const_2000^0 ) ) ) 0 ) ( = ( + ( * ( - 1 ) lam5n0 ) ( * ( - 1 ) lam5n5 ) ( * 1 lam5n6 ) ( * Nl1x^01 lam5n7 ) ( - ( - RFN1_x^0 ) ) ) 0 ) ( = ( + ( * 1 lam5n1 ) ( * 1 lam5n3 ) ( * 1 lam5n5 ) ( * Nl1y^01 lam5n7 ) ( - ( - ( + 0 RFN1_y^0 ) RFN1_y^0 ) ) ) 0 ) ( = ( + ( * ( - 1 ) lam5n2 ) ( * ( - 1 ) lam5n6 ) ( - ( + 0 ( * RFN1_x^0 1 ) ) ) ) 0 ) ) ) ) ( and ( >= lam3n0 0 ) ( >= lam3n1 0 ) ( >= lam3n2 0 ) ( >= lam3n3 0 ) ( >= lam3n4 0 ) ( >= lam3n5 0 ) ( >= lam3n7 0 ) ( > ( + ( * 1 lam3n0 ) ( * 1 lam3n1 ) ( * 1 lam3n2 ) ( * 1 lam3n3 ) ( * 2 lam3n5 ) ( * Nl1CT1 lam3n7 ) ( - 1 ) ) 0 ) ( = ( + ( * ( - 1 ) lam3n0 ) ( * ( - 1 ) lam3n1 ) ( * ( - 1 ) lam3n4 ) ( * ( - 1 ) lam3n5 ) ( * 1 lam3n6 ) ( * Nl1__const_1000^01 lam3n7 ) ) 0 ) ( = ( + ( * 1 lam3n0 ) ( * 1 lam3n2 ) ( * 1 lam3n5 ) ( * Nl1__const_110^01 lam3n7 ) ) 0 ) ( = ( + ( * ( - 1 ) lam3n1 ) ( * ( - 1 ) lam3n3 ) ( * ( - 1 ) lam3n5 ) ( * Nl1__const_2000^01 lam3n7 ) ) 0 ) ( = ( + ( * ( - 1 ) lam3n0 ) ( * ( - 1 ) lam3n5 ) ( * 1 lam3n6 ) ( * Nl1x^01 lam3n7 ) ) 0 ) ( = ( + ( * 1 lam3n1 ) ( * 1 lam3n3 ) ( * 1 lam3n5 ) ( * Nl1y^01 lam3n7 ) ) 0 ) ( = ( + ( * ( - 1 ) lam3n2 ) ( * ( - 1 ) lam3n6 ) ) 0 ) ) ))
(check-sat)
(exit)
